c turning on binary mode checking
c parsing input formula with 202048 variables and 780975 clauses
c finished parsing, read 1948146 bytes from proof file
c detected empty clause; start verification via backward checking
c 779 of 780975 clauses in core                            
c 225 of 77211 lemmas in core using 2454 resolution steps
c 0 RAT lemmas in core; 3 redundant literals in core lemmas
s VERIFIED
c verification time: 0.883 seconds
